M+/results-log/S2-5-M+/S2-15-5-1-l-M+.log
CPXPARAM_Read_DataCheck                          1
Found incumbent of value 0.000000 after 0.00 sec. (0.03 ticks)
Tried aggregator 1 time.
MIP Presolve modified 1 coefficients.
Reduced MIP has 216 rows, 1005 columns, and 5020 nonzeros.
Reduced MIP has 1005 binaries, 0 generals, 0 SOSs, and 0 indicators.
Presolve time = 0.02 sec. (1.88 ticks)
Probing time = 0.00 sec. (1.47 ticks)
Tried aggregator 1 time.
Reduced MIP has 216 rows, 1005 columns, and 5020 nonzeros.
Reduced MIP has 1005 binaries, 0 generals, 0 SOSs, and 0 indicators.
Presolve time = 0.00 sec. (2.26 ticks)
Probing time = 0.00 sec. (1.47 ticks)
Clique table members: 1723.
MIP emphasis: balance optimality and feasibility.
MIP search method: dynamic search.
Parallel mode: deterministic, using up to 4 threads.
Root relaxation solution time = 0.00 sec. (3.23 ticks)

        Nodes                                         Cuts/
   Node  Left     Objective  IInf  Best Integer    Best Bound    ItCnt     Gap

*     0+    0                            0.0000     6497.0000              --- 
      0     0     3117.7329     7        0.0000     3117.7329      315     --- 
      0     0     2664.8474   223        0.0000     Cuts: 154      633     --- 
      0     0     2569.0591    10        0.0000     Cuts: 154     1002     --- 
*     0+    0                         2219.0000     2569.0591            15.78%
      0     0        cutoff           2219.0000     2219.0000     1313    0.00%
Elapsed time = 0.16 sec. (125.09 ticks, tree = 0.01 MB, solutions = 2)

Clique cuts applied:  413
Cover cuts applied:  6
Mixed integer rounding cuts applied:  11
Zero-half cuts applied:  3

Root node processing (before b&c):
  Real time             =    0.16 sec. (125.16 ticks)
Parallel b&c, 4 threads:
  Real time             =    0.00 sec. (0.00 ticks)
  Sync time (average)   =    0.00 sec.
  Wait time (average)   =    0.00 sec.
                          ------------
Total (root+branch&cut) =    0.16 sec. (125.16 ticks)
